c File: flat75_3_0.col
c
c SOURCE: Joseph Culberson (joe@cs.ualberta.ca)
c DESCRIPTION: Quasi-random coloring problem
c              generated with flatness = 0
c                             probability = 0.096
c                             known coloring = 3
c                             random seed = 1077
c              Creation Date:  Wed Feb 24 10:42:09 1999
c Maximum degree = 8 Minimum degree = 1
c COLOR VERIFICATION: Using the permuted order
c under simple greedy yields the specified
c coloring number
c Color = 3 specified partitions = 3
c p edge 75 180
c cnf created by edge2cnf
p cnf 225 840
-1 -2 0
-1 -3 0
-2 -3 0
1 2 3 0
-4 -5 0
-4 -6 0
-5 -6 0
4 5 6 0
-7 -8 0
-7 -9 0
-8 -9 0
7 8 9 0
-10 -11 0
-10 -12 0
-11 -12 0
10 11 12 0
-13 -14 0
-13 -15 0
-14 -15 0
13 14 15 0
-16 -17 0
-16 -18 0
-17 -18 0
16 17 18 0
-19 -20 0
-19 -21 0
-20 -21 0
19 20 21 0
-22 -23 0
-22 -24 0
-23 -24 0
22 23 24 0
-25 -26 0
-25 -27 0
-26 -27 0
25 26 27 0
-28 -29 0
-28 -30 0
-29 -30 0
28 29 30 0
-31 -32 0
-31 -33 0
-32 -33 0
31 32 33 0
-34 -35 0
-34 -36 0
-35 -36 0
34 35 36 0
-37 -38 0
-37 -39 0
-38 -39 0
37 38 39 0
-40 -41 0
-40 -42 0
-41 -42 0
40 41 42 0
-43 -44 0
-43 -45 0
-44 -45 0
43 44 45 0
-46 -47 0
-46 -48 0
-47 -48 0
46 47 48 0
-49 -50 0
-49 -51 0
-50 -51 0
49 50 51 0
-52 -53 0
-52 -54 0
-53 -54 0
52 53 54 0
-55 -56 0
-55 -57 0
-56 -57 0
55 56 57 0
-58 -59 0
-58 -60 0
-59 -60 0
58 59 60 0
-61 -62 0
-61 -63 0
-62 -63 0
61 62 63 0
-64 -65 0
-64 -66 0
-65 -66 0
64 65 66 0
-67 -68 0
-67 -69 0
-68 -69 0
67 68 69 0
-70 -71 0
-70 -72 0
-71 -72 0
70 71 72 0
-73 -74 0
-73 -75 0
-74 -75 0
73 74 75 0
-76 -77 0
-76 -78 0
-77 -78 0
76 77 78 0
-79 -80 0
-79 -81 0
-80 -81 0
79 80 81 0
-82 -83 0
-82 -84 0
-83 -84 0
82 83 84 0
-85 -86 0
-85 -87 0
-86 -87 0
85 86 87 0
-88 -89 0
-88 -90 0
-89 -90 0
88 89 90 0
-91 -92 0
-91 -93 0
-92 -93 0
91 92 93 0
-94 -95 0
-94 -96 0
-95 -96 0
94 95 96 0
-97 -98 0
-97 -99 0
-98 -99 0
97 98 99 0
-100 -101 0
-100 -102 0
-101 -102 0
100 101 102 0
-103 -104 0
-103 -105 0
-104 -105 0
103 104 105 0
-106 -107 0
-106 -108 0
-107 -108 0
106 107 108 0
-109 -110 0
-109 -111 0
-110 -111 0
109 110 111 0
-112 -113 0
-112 -114 0
-113 -114 0
112 113 114 0
-115 -116 0
-115 -117 0
-116 -117 0
115 116 117 0
-118 -119 0
-118 -120 0
-119 -120 0
118 119 120 0
-121 -122 0
-121 -123 0
-122 -123 0
121 122 123 0
-124 -125 0
-124 -126 0
-125 -126 0
124 125 126 0
-127 -128 0
-127 -129 0
-128 -129 0
127 128 129 0
-130 -131 0
-130 -132 0
-131 -132 0
130 131 132 0
-133 -134 0
-133 -135 0
-134 -135 0
133 134 135 0
-136 -137 0
-136 -138 0
-137 -138 0
136 137 138 0
-139 -140 0
-139 -141 0
-140 -141 0
139 140 141 0
-142 -143 0
-142 -144 0
-143 -144 0
142 143 144 0
-145 -146 0
-145 -147 0
-146 -147 0
145 146 147 0
-148 -149 0
-148 -150 0
-149 -150 0
148 149 150 0
-151 -152 0
-151 -153 0
-152 -153 0
151 152 153 0
-154 -155 0
-154 -156 0
-155 -156 0
154 155 156 0
-157 -158 0
-157 -159 0
-158 -159 0
157 158 159 0
-160 -161 0
-160 -162 0
-161 -162 0
160 161 162 0
-163 -164 0
-163 -165 0
-164 -165 0
163 164 165 0
-166 -167 0
-166 -168 0
-167 -168 0
166 167 168 0
-169 -170 0
-169 -171 0
-170 -171 0
169 170 171 0
-172 -173 0
-172 -174 0
-173 -174 0
172 173 174 0
-175 -176 0
-175 -177 0
-176 -177 0
175 176 177 0
-178 -179 0
-178 -180 0
-179 -180 0
178 179 180 0
-181 -182 0
-181 -183 0
-182 -183 0
181 182 183 0
-184 -185 0
-184 -186 0
-185 -186 0
184 185 186 0
-187 -188 0
-187 -189 0
-188 -189 0
187 188 189 0
-190 -191 0
-190 -192 0
-191 -192 0
190 191 192 0
-193 -194 0
-193 -195 0
-194 -195 0
193 194 195 0
-196 -197 0
-196 -198 0
-197 -198 0
196 197 198 0
-199 -200 0
-199 -201 0
-200 -201 0
199 200 201 0
-202 -203 0
-202 -204 0
-203 -204 0
202 203 204 0
-205 -206 0
-205 -207 0
-206 -207 0
205 206 207 0
-208 -209 0
-208 -210 0
-209 -210 0
208 209 210 0
-211 -212 0
-211 -213 0
-212 -213 0
211 212 213 0
-214 -215 0
-214 -216 0
-215 -216 0
214 215 216 0
-217 -218 0
-217 -219 0
-218 -219 0
217 218 219 0
-220 -221 0
-220 -222 0
-221 -222 0
220 221 222 0
-223 -224 0
-223 -225 0
-224 -225 0
223 224 225 0
-61 -1 0
-62 -2 0
-63 -3 0
-76 -4 0
-77 -5 0
-78 -6 0
-163 -4 0
-164 -5 0
-165 -6 0
-187 -4 0
-188 -5 0
-189 -6 0
-13 -7 0
-14 -8 0
-15 -9 0
-22 -7 0
-23 -8 0
-24 -9 0
-88 -7 0
-89 -8 0
-90 -9 0
-91 -7 0
-92 -8 0
-93 -9 0
-124 -7 0
-125 -8 0
-126 -9 0
-151 -7 0
-152 -8 0
-153 -9 0
-196 -7 0
-197 -8 0
-198 -9 0
-82 -10 0
-83 -11 0
-84 -12 0
-118 -10 0
-119 -11 0
-120 -12 0
-121 -10 0
-122 -11 0
-123 -12 0
-208 -10 0
-209 -11 0
-210 -12 0
-43 -13 0
-44 -14 0
-45 -15 0
-73 -13 0
-74 -14 0
-75 -15 0
-88 -13 0
-89 -14 0
-90 -15 0
-115 -13 0
-116 -14 0
-117 -15 0
-121 -13 0
-122 -14 0
-123 -15 0
-223 -13 0
-224 -14 0
-225 -15 0
-19 -16 0
-20 -17 0
-21 -18 0
-76 -16 0
-77 -17 0
-78 -18 0
-109 -16 0
-110 -17 0
-111 -18 0
-121 -16 0
-122 -17 0
-123 -18 0
-127 -16 0
-128 -17 0
-129 -18 0
-145 -16 0
-146 -17 0
-147 -18 0
-28 -19 0
-29 -20 0
-30 -21 0
-46 -19 0
-47 -20 0
-48 -21 0
-85 -19 0
-86 -20 0
-87 -21 0
-88 -19 0
-89 -20 0
-90 -21 0
-94 -19 0
-95 -20 0
-96 -21 0
-127 -19 0
-128 -20 0
-129 -21 0
-175 -19 0
-176 -20 0
-177 -21 0
-58 -22 0
-59 -23 0
-60 -24 0
-91 -22 0
-92 -23 0
-93 -24 0
-133 -22 0
-134 -23 0
-135 -24 0
-136 -22 0
-137 -23 0
-138 -24 0
-205 -22 0
-206 -23 0
-207 -24 0
-67 -25 0
-68 -26 0
-69 -27 0
-103 -25 0
-104 -26 0
-105 -27 0
-106 -25 0
-107 -26 0
-108 -27 0
-109 -25 0
-110 -26 0
-111 -27 0
-112 -25 0
-113 -26 0
-114 -27 0
-199 -25 0
-200 -26 0
-201 -27 0
-211 -25 0
-212 -26 0
-213 -27 0
-37 -28 0
-38 -29 0
-39 -30 0
-133 -28 0
-134 -29 0
-135 -30 0
-136 -28 0
-137 -29 0
-138 -30 0
-139 -28 0
-140 -29 0
-141 -30 0
-148 -28 0
-149 -29 0
-150 -30 0
-43 -31 0
-44 -32 0
-45 -33 0
-100 -34 0
-101 -35 0
-102 -36 0
-169 -34 0
-170 -35 0
-171 -36 0
-217 -34 0
-218 -35 0
-219 -36 0
-85 -37 0
-86 -38 0
-87 -39 0
-88 -37 0
-89 -38 0
-90 -39 0
-127 -37 0
-128 -38 0
-129 -39 0
-148 -37 0
-149 -38 0
-150 -39 0
-169 -37 0
-170 -38 0
-171 -39 0
-199 -37 0
-200 -38 0
-201 -39 0
-154 -40 0
-155 -41 0
-156 -42 0
-190 -40 0
-191 -41 0
-192 -42 0
-211 -40 0
-212 -41 0
-213 -42 0
-97 -43 0
-98 -44 0
-99 -45 0
-145 -43 0
-146 -44 0
-147 -45 0
-154 -43 0
-155 -44 0
-156 -45 0
-205 -43 0
-206 -44 0
-207 -45 0
-208 -43 0
-209 -44 0
-210 -45 0
-76 -46 0
-77 -47 0
-78 -48 0
-91 -46 0
-92 -47 0
-93 -48 0
-109 -46 0
-110 -47 0
-111 -48 0
-154 -46 0
-155 -47 0
-156 -48 0
-94 -49 0
-95 -50 0
-96 -51 0
-142 -49 0
-143 -50 0
-144 -51 0
-61 -52 0
-62 -53 0
-63 -54 0
-70 -52 0
-71 -53 0
-72 -54 0
-82 -52 0
-83 -53 0
-84 -54 0
-94 -52 0
-95 -53 0
-96 -54 0
-112 -52 0
-113 -53 0
-114 -54 0
-199 -52 0
-200 -53 0
-201 -54 0
-58 -55 0
-59 -56 0
-60 -57 0
-133 -55 0
-134 -56 0
-135 -57 0
-139 -55 0
-140 -56 0
-141 -57 0
-151 -58 0
-152 -59 0
-153 -60 0
-175 -58 0
-176 -59 0
-177 -60 0
-199 -58 0
-200 -59 0
-201 -60 0
-79 -61 0
-80 -62 0
-81 -63 0
-82 -61 0
-83 -62 0
-84 -63 0
-118 -61 0
-119 -62 0
-120 -63 0
-187 -61 0
-188 -62 0
-189 -63 0
-100 -64 0
-101 -65 0
-102 -66 0
-115 -64 0
-116 -65 0
-117 -66 0
-178 -64 0
-179 -65 0
-180 -66 0
-109 -67 0
-110 -68 0
-111 -69 0
-142 -67 0
-143 -68 0
-144 -69 0
-184 -67 0
-185 -68 0
-186 -69 0
-196 -67 0
-197 -68 0
-198 -69 0
-79 -70 0
-80 -71 0
-81 -72 0
-94 -70 0
-95 -71 0
-96 -72 0
-103 -70 0
-104 -71 0
-105 -72 0
-115 -70 0
-116 -71 0
-117 -72 0
-223 -70 0
-224 -71 0
-225 -72 0
-82 -73 0
-83 -74 0
-84 -75 0
-124 -73 0
-125 -74 0
-126 -75 0
-160 -73 0
-161 -74 0
-162 -75 0
-196 -73 0
-197 -74 0
-198 -75 0
-79 -76 0
-80 -77 0
-81 -78 0
-115 -76 0
-116 -77 0
-117 -78 0
-136 -79 0
-137 -80 0
-138 -81 0
-148 -79 0
-149 -80 0
-150 -81 0
-157 -79 0
-158 -80 0
-159 -81 0
-148 -82 0
-149 -83 0
-150 -84 0
-172 -82 0
-173 -83 0
-174 -84 0
-205 -82 0
-206 -83 0
-207 -84 0
-97 -85 0
-98 -86 0
-99 -87 0
-130 -85 0
-131 -86 0
-132 -87 0
-160 -85 0
-161 -86 0
-162 -87 0
-178 -85 0
-179 -86 0
-180 -87 0
-199 -85 0
-200 -86 0
-201 -87 0
-211 -88 0
-212 -89 0
-213 -90 0
-103 -94 0
-104 -95 0
-105 -96 0
-118 -94 0
-119 -95 0
-120 -96 0
-127 -94 0
-128 -95 0
-129 -96 0
-142 -94 0
-143 -95 0
-144 -96 0
-103 -100 0
-104 -101 0
-105 -102 0
-214 -100 0
-215 -101 0
-216 -102 0
-148 -103 0
-149 -104 0
-150 -105 0
-157 -103 0
-158 -104 0
-159 -105 0
-190 -103 0
-191 -104 0
-192 -105 0
-118 -106 0
-119 -107 0
-120 -108 0
-157 -106 0
-158 -107 0
-159 -108 0
-217 -106 0
-218 -107 0
-219 -108 0
-205 -109 0
-206 -110 0
-207 -111 0
-142 -112 0
-143 -113 0
-144 -114 0
-160 -112 0
-161 -113 0
-162 -114 0
-157 -115 0
-158 -116 0
-159 -117 0
-160 -115 0
-161 -116 0
-162 -117 0
-154 -118 0
-155 -119 0
-156 -120 0
-202 -118 0
-203 -119 0
-204 -120 0
-184 -124 0
-185 -125 0
-186 -126 0
-172 -127 0
-173 -128 0
-174 -129 0
-202 -127 0
-203 -128 0
-204 -129 0
-133 -130 0
-134 -131 0
-135 -132 0
-145 -130 0
-146 -131 0
-147 -132 0
-184 -133 0
-185 -134 0
-186 -135 0
-205 -133 0
-206 -134 0
-207 -135 0
-145 -136 0
-146 -137 0
-147 -138 0
-145 -142 0
-146 -143 0
-147 -144 0
-199 -142 0
-200 -143 0
-201 -144 0
-151 -145 0
-152 -146 0
-153 -147 0
-202 -145 0
-203 -146 0
-204 -147 0
-163 -148 0
-164 -149 0
-165 -150 0
-202 -151 0
-203 -152 0
-204 -153 0
-214 -151 0
-215 -152 0
-216 -153 0
-178 -154 0
-179 -155 0
-180 -156 0
-163 -157 0
-164 -158 0
-165 -159 0
-223 -157 0
-224 -158 0
-225 -159 0
-196 -160 0
-197 -161 0
-198 -162 0
-199 -160 0
-200 -161 0
-201 -162 0
-220 -160 0
-221 -161 0
-222 -162 0
-166 -163 0
-167 -164 0
-168 -165 0
-175 -166 0
-176 -167 0
-177 -168 0
-196 -175 0
-197 -176 0
-198 -177 0
-211 -175 0
-212 -176 0
-213 -177 0
-214 -178 0
-215 -179 0
-216 -180 0
-199 -181 0
-200 -182 0
-201 -183 0
-187 -184 0
-188 -185 0
-189 -186 0
-214 -184 0
-215 -185 0
-216 -186 0
-223 -184 0
-224 -185 0
-225 -186 0
-211 -190 0
-212 -191 0
-213 -192 0
-214 -190 0
-215 -191 0
-216 -192 0
-205 -193 0
-206 -194 0
-207 -195 0
-208 -193 0
-209 -194 0
-210 -195 0
-217 -202 0
-218 -203 0
-219 -204 0
-214 -205 0
-215 -206 0
-216 -207 0
-217 -208 0
-218 -209 0
-219 -210 0
-220 -211 0
-221 -212 0
-222 -213 0
-223 -214 0
-224 -215 0
-225 -216 0
-223 -217 0
-224 -218 0
-225 -219 0
